50, 639
26, 26
22, 22
22, 22
26, 26
16, 16
34, 34
12, 12
24, 24
8, 8
40, 40
42, 42
24, 24
46, 46
42, 42
4, 4
40, 40
28, 28
34, 34
22, 22
24, 24
16, 16
44, 44
30, 30
32, 32
2, 2
28, 28
46, 46
28, 28
24, 24
4, 4
36, 36
14, 14
46, 46
20, 20
12, 12
36, 36
38, 38
40, 40
4, 4
18, 18
32, 32
8, 8
24, 24
30, 30
4, 4
50, 50
6, 6
28, 28
6, 6
36, 36
